<instance format="XCSP3" type="CSP">
  <variables>
    <var id="x0"> 0 3 7 </var>
    <var id="x1"> 0 7 11 </var>
    <var id="x2"> 1 3 11 </var>
    <var id="x3"> 0 1 3 </var>
    <var id="x4"> 1 7 8 </var>
    <var id="x5"> 1 3 6 8 11 </var>
    <var id="x6"> 0 1 3 6 8 11 </var>
    <var id="x7"> 0 5 9 12 </var>
    <var id="x8"> 0 2 9 10 12 </var>
    <var id="x9"> 1 2 9 12 </var>
    <var id="x10"> 0..2 12 </var>
    <var id="x11"> 1 12 </var>
    <var id="x12"> 0 1 5 10 </var>
    <var id="x13"> 0 9 10 </var>
    <var id="x14"> 0 2 3 </var>
    <var id="x15"> 0..4 11 </var>
    <var id="x16"> 0..3 </var>
    <var id="x17"> 2..4 6 11 </var>
    <var id="x18"> 1 2 4 </var>
    <var id="x19"> 0 1 3 4 </var>
    <var id="x20"> 0 1 3 6 11 </var>
    <var id="x21"> 0 3 5 11 </var>
    <var id="x22"> 0 3 13 </var>
    <var id="x23"> 0 1 3 11 </var>
    <var id="x24"> 0 1 3 13 </var>
    <var id="x25"> 3 7 11 13 </var>
    <var id="x26"> 0 1 3 5 7 </var>
    <var id="x27"> 0 1 3 5 11 </var>
    <var id="x28"> 0 2 3 9 </var>
    <var id="x29"> 1..4 9 </var>
    <var id="x30"> 0 1 3 4 </var>
    <var id="x31"> 0..4 8 </var>
    <var id="x32"> 2..4 </var>
    <var id="x33"> 1 2 4 8 14 </var>
    <var id="x34"> 0 1 3 4 8 </var>
    <var id="x35"> 0 1 3 8 </var>
    <var id="x36"> 0 3 4 11 </var>
    <var id="x37"> 0 2 11 13 </var>
    <var id="x38"> 1..4 11 </var>
    <var id="x39"> 0 1 3 4 11 </var>
    <var id="x40"> 2..4 11 </var>
    <var id="x41"> 3 11 13 </var>
    <var id="x42"> 0 4 </var>
    <var id="x43"> 0 3 11 12 </var>
    <var id="x44"> 0 2 11 12 </var>
    <var id="x45"> 0 2 3 </var>
    <var id="x46"> 0 2 3 12 </var>
    <var id="x47"> 3 8 11 </var>
    <var id="x48"> 3 6 8 11 12 </var>
    <var id="x49"> 0 3 8 </var>
    <var id="x50"> 3..5 12 </var>
    <var id="x51"> 3 14 </var>
    <var id="x52"> 3..5 </var>
    <var id="x53"> 3 4 8 </var>
    <var id="x54"> 3 7 8 </var>
    <var id="x55"> 3 5 8 </var>
    <var id="x56"> 4 7 8 14 </var>
    <var id="x57"> 3 11 </var>
    <var id="x58"> 3 5 6 11 </var>
    <var id="x59"> 3 6 7 11 </var>
    <var id="x60"> 5 7 14 </var>
    <var id="x61"> 3 6 11 14 </var>
    <var id="x62"> 3 5 7 10 </var>
    <var id="x63"> 7 10 14 </var>
    <var id="x64"> 3 9 10 12 </var>
    <var id="x65"> 5 11 12 </var>
    <var id="x66"> 3 4 11 </var>
    <var id="x67"> 3 4 11 12 </var>
    <var id="x68"> 4 5 </var>
    <var id="x69"> 3..5 10 </var>
    <var id="x70"> 4 9 10 </var>
    <var id="x71"> 0 2 10 13 </var>
    <var id="x72"> 2 12 </var>
    <var id="x73"> 0 </var>
    <var id="x74"> 2 7 12 </var>
    <var id="x75"> 2 7 8 </var>
    <var id="x76"> 7 8 10 13 </var>
    <var id="x77"> 0 7 8 10 </var>
    <var id="x78"> 3 9 11 </var>
    <var id="x79"> 2 3 9 14 </var>
    <var id="x80"> 1 3 11 </var>
    <var id="x81"> 1..3 8 11 </var>
    <var id="x82"> 1 2 8 14 </var>
    <var id="x83"> 1 3 8 11 14 </var>
    <var id="x84"> 8 9 14 </var>
    <var id="x85"> 0 7 12 </var>
    <var id="x86"> 0 9 10 </var>
    <var id="x87"> 1 4 9 12 </var>
    <var id="x88"> 0 1 4 </var>
    <var id="x89"> 4 7 12 </var>
    <var id="x90"> 7 9 10 </var>
    <var id="x91"> 0 1 10 </var>
    <var id="x92"> 0 3 7 9 12 </var>
    <var id="x93"> 0 5 7 12 </var>
    <var id="x94"> 0 3 9 </var>
    <var id="x95"> 0 3..5 </var>
    <var id="x96"> 3 12 </var>
    <var id="x97"> 0 3..5 7 </var>
    <var id="x98"> 0 3 5 </var>
    <var id="x99"> 3 4 11 </var>
    <var id="x100"> 2 3 10 </var>
    <var id="x101"> 2 11 13 </var>
    <var id="x102"> 2 3 13 </var>
    <var id="x103"> 3 8 10 11 13 </var>
    <var id="x104"> 3 8 11 </var>
    <var id="x105"> 3 8 10 11 </var>
  </variables>
  <constraints>
    <group>
      <allDifferent> %... </allDifferent>
      <args> x0 x1 x2 x3 x4 x5 x6 </args>
      <args> x7 x8 x9 x10 x11 x12 x13 </args>
      <args> x14 x15 x16 x17 x18 x19 x20 </args>
      <args> x21 x22 x23 x24 x25 x26 x27 </args>
      <args> x28 x29 x30 x31 x32 x33 x34 x35 </args>
      <args> x36 x37 x38 x39 x40 x41 x42 </args>
      <args> x43 x44 x45 x46 x47 x48 x49 </args>
      <args> x50 x51 x52 x53 x54 x55 x56 </args>
      <args> x57 x58 x59 x60 x61 x62 x63 </args>
      <args> x64 x65 x66 x67 x68 x69 x70 </args>
      <args> x71 x72 x73 x74 x75 x76 x77 </args>
      <args> x78 x79 x80 x81 x82 x83 x84 </args>
      <args> x85 x86 x87 x88 x89 x90 x91 </args>
      <args> x92 x93 x94 x95 x96 x97 x98 </args>
      <args> x99 x100 x101 x102 x103 x104 x105 </args>
      <args> x7 x21 x36 x43 x50 x78 x99 </args>
      <args> x0 x8 x14 x28 x64 x92 x100 </args>
      <args> x1 x37 x44 x65 x85 x93 x101 </args>
      <args> x22 x45 x51 x71 x79 x86 x94 </args>
      <args> x2 x9 x29 x38 x57 x72 x87 </args>
      <args> x30 x39 x52 x58 x73 x80 x95 </args>
      <args> x15 x23 x31 x53 x66 x81 x88 </args>
      <args> x3 x10 x16 x24 x46 x102 </args>
      <args> x17 x32 x40 x59 x67 x74 x89 </args>
      <args> x4 x18 x33 x60 x68 x75 x82 </args>
      <args> x25 x41 x47 x54 x76 x90 x103 </args>
      <args> x5 x11 x48 x61 x83 x96 x104 </args>
      <args> x12 x19 x26 x34 x49 x62 x69 x97 </args>
      <args> x6 x20 x27 x35 x55 x91 x98 x105 </args>
      <args> x13 x42 x56 x63 x70 x77 x84 </args>
    </group>
  </constraints>
</instance>

